(declare-fun temp60656_1 () (_ BitVec 64))
(declare-fun temp60656_2 () (_ BitVec 64))
(declare-fun var77740 () (_ BitVec 64))
(declare-fun k!0 () Bool)
(declare-fun ARGNAME_filter_NAMEEND_DIM () (_ BitVec 64))
(declare-fun ARGNAME_data_format_NAMEEND_STRFMT () (_ BitVec 64))
(declare-fun temp60656_3 () (_ BitVec 64))
(declare-fun ARGNAME_out_backprop_NAMEEND_DIM () (_ BitVec 64))
(declare-fun var77770 () (_ BitVec 64))
(declare-fun temp60656_4 () (_ BitVec 64))
(declare-fun temp60656_5 () (_ BitVec 64))
(declare-fun ARGNAME_filter_NAMEEND_DIMSIZE
             ()
             (Array (_ BitVec 64) (_ BitVec 64)))
(declare-fun temp60656_6 () (_ BitVec 64))
(declare-fun temp60656_7 () (_ BitVec 64))
(declare-fun temp60656_8 () (_ BitVec 64))
(declare-fun temp60656_9 () (_ BitVec 64))
(declare-fun temp60656_10 () (_ BitVec 64))
(declare-fun temp60656_11 () (_ BitVec 64))
(declare-fun temp60656_12 () (_ BitVec 64))
(declare-fun temp60656_13 () (_ BitVec 64))
(declare-fun temp60656_14 () (_ BitVec 64))
(declare-fun temp60656_15 () (_ BitVec 64))
(declare-fun temp60656_16 () (_ BitVec 64))
(declare-fun temp60656_17 () (_ BitVec 64))
(declare-fun temp60656_18 () (_ BitVec 64))
(declare-fun var77799 () (_ BitVec 64))
(declare-fun temp60656_19 () (_ BitVec 64))
(declare-fun ARGNAME_out_backprop_NAMEEND_DIMSIZE
             ()
             (Array (_ BitVec 64) (_ BitVec 64)))
(declare-fun temp60656_20 () (_ BitVec 64))
(declare-fun temp60656_21 () (_ BitVec 64))
(declare-fun temp60656_22 () (_ BitVec 64))
(declare-fun temp60656_23 () (_ BitVec 64))
(declare-fun temp60656_24 () (_ BitVec 64))
(declare-fun temp60656_25 () (_ BitVec 64))
(declare-fun temp60656_26 () (_ BitVec 64))
(declare-fun temp60656_27 () (_ BitVec 64))
(declare-fun temp60656_28 () (_ BitVec 64))
(declare-fun temp60656_29 () (_ BitVec 64))
(declare-fun temp60656_30 () (_ BitVec 64))
(declare-fun temp60656_31 () (_ BitVec 64))
(declare-fun temp60656_32 () (_ BitVec 64))
(declare-fun var77832 () (_ BitVec 64))
(declare-fun temp60656_33 () (_ BitVec 64))
(declare-fun temp60656_34 () (_ BitVec 64))
(declare-fun var77833 () (_ BitVec 64))
(declare-fun var77834 () (_ BitVec 64))
(declare-fun temp60656_35 () (_ BitVec 64))
(declare-fun temp60656_36 () (_ BitVec 64))
(declare-fun var275510 () (_ BitVec 64))
(declare-fun temp60656_37 () (_ BitVec 64))
(declare-fun var275528 () (_ BitVec 64))
(declare-fun temp60656_38 () (_ BitVec 64))
(declare-fun temp60656_39 () (_ BitVec 64))
(declare-fun var406582 () (_ BitVec 64))
(declare-fun temp60656_40 () (_ BitVec 64))
(declare-fun var406600 () (_ BitVec 64))
(declare-fun temp60656_41 () (_ BitVec 64))
(declare-fun temp60656_43 () (_ BitVec 64))
(declare-fun temp60656_42 () (_ BitVec 64))
(declare-fun temp60656_45 () (_ BitVec 64))
(declare-fun temp60656_44 () (_ BitVec 64))
(declare-fun temp60656_46 () (_ BitVec 64))
(declare-fun var537654 () (_ BitVec 64))
(declare-fun temp60656_47 () (_ BitVec 64))
(declare-fun var537672 () (_ BitVec 64))
(declare-fun temp60656_48 () (_ BitVec 64))
(declare-fun temp60656_50 () (_ BitVec 64))
(declare-fun temp60656_49 () (_ BitVec 64))
(declare-fun temp60656_52 () (_ BitVec 64))
(declare-fun temp60656_51 () (_ BitVec 64))
(declare-fun temp60656_54 () (_ BitVec 64))
(declare-fun temp60656_53 () (_ BitVec 64))
(declare-fun temp60656_56 () (_ BitVec 64))
(declare-fun temp60656_55 () (_ BitVec 64))
(declare-fun temp60656_58 () (_ BitVec 64))
(declare-fun temp60656_57 () (_ BitVec 64))
(declare-fun temp60656_59 () (_ BitVec 64))
(declare-fun var795723 () (_ BitVec 64))
(declare-fun var795702 () (_ BitVec 64))
(declare-fun var664608 () (_ BitVec 64))
(declare-fun temp60656_60 () (_ BitVec 64))
(declare-fun temp60656_61 () (_ BitVec 64))
(declare-fun var861259 () (_ BitVec 64))
(declare-fun var861238 () (_ BitVec 64))
(declare-fun var664611 () (_ BitVec 64))
(declare-fun temp60656_62 () (_ BitVec 64))
(declare-fun temp60656_63 () (_ BitVec 64))
(declare-fun var1057842 () (_ BitVec 64))
(declare-fun temp60656_64 () (_ BitVec 64))
(declare-fun var1123378 () (_ BitVec 64))
(declare-fun temp60656_65 () (_ BitVec 64))
(declare-fun var1188914 () (_ BitVec 64))
(assert (or (= ARGNAME_data_format_NAMEEND_STRFMT #x0000000000000000)
    (= ARGNAME_data_format_NAMEEND_STRFMT #x0000000000000001)
    (= ARGNAME_data_format_NAMEEND_STRFMT #x0000000000000002)
    (= ARGNAME_data_format_NAMEEND_STRFMT #x0000000000000003)
    (= ARGNAME_data_format_NAMEEND_STRFMT #x0000000000000004)
    (= ARGNAME_data_format_NAMEEND_STRFMT #x0000000000000005)))
(assert (= temp60656_1 #x0000000000000005))
(assert (= var77740
   (ite (= ARGNAME_filter_NAMEEND_DIM temp60656_1)
        #x0000000000000001
        #x0000000000000000)))
(assert (= temp60656_2 #x0000000000000001))
(assert (= var77740 temp60656_2))
(assert (= temp60656_3 #x0000000000000005))
(assert (= var77770
   (ite (= ARGNAME_out_backprop_NAMEEND_DIM temp60656_3)
        #x0000000000000001
        #x0000000000000000)))
(assert (= temp60656_4 #x0000000000000001))
(assert (= var77770 temp60656_4))
(assert (= temp60656_5 #x0000000000000000))
(assert (= temp60656_6 (select ARGNAME_filter_NAMEEND_DIMSIZE temp60656_5)))
(assert (= temp60656_7 #x0000000000000001))
(assert (= temp60656_8 (select ARGNAME_filter_NAMEEND_DIMSIZE temp60656_7)))
(assert (= temp60656_9 #x0000000000000002))
(assert (= temp60656_10 (select ARGNAME_filter_NAMEEND_DIMSIZE temp60656_9)))
(assert (= temp60656_11 #x0000000000000003))
(assert (= temp60656_12 (select ARGNAME_filter_NAMEEND_DIMSIZE temp60656_11)))
(assert (= temp60656_13 #x0000000000000004))
(assert (= temp60656_14 (select ARGNAME_filter_NAMEEND_DIMSIZE temp60656_13)))
(assert (= temp60656_15 #x0000000000000005))
(assert (= temp60656_16 (select ARGNAME_filter_NAMEEND_DIMSIZE temp60656_15)))
(assert (= temp60656_17 #x0000000000000003))
(assert (= temp60656_18 (select ARGNAME_filter_NAMEEND_DIMSIZE temp60656_17)))
(assert (= var77799 temp60656_18))
(assert (= temp60656_19 #x0000000000000000))
(assert (= temp60656_20 (select ARGNAME_out_backprop_NAMEEND_DIMSIZE temp60656_19)))
(assert (= temp60656_21 #x0000000000000001))
(assert (= temp60656_22 (select ARGNAME_out_backprop_NAMEEND_DIMSIZE temp60656_21)))
(assert (= temp60656_23 #x0000000000000002))
(assert (= temp60656_24 (select ARGNAME_out_backprop_NAMEEND_DIMSIZE temp60656_23)))
(assert (= temp60656_25 #x0000000000000003))
(assert (= temp60656_26 (select ARGNAME_out_backprop_NAMEEND_DIMSIZE temp60656_25)))
(assert (= temp60656_27 #x0000000000000004))
(assert (= temp60656_28 (select ARGNAME_out_backprop_NAMEEND_DIMSIZE temp60656_27)))
(assert (= temp60656_29 #x0000000000000005))
(assert (= temp60656_30 (select ARGNAME_out_backprop_NAMEEND_DIMSIZE temp60656_29)))
(assert (= temp60656_31 #x0000000000000004))
(assert (= temp60656_32 (select ARGNAME_out_backprop_NAMEEND_DIMSIZE temp60656_31)))
(assert (= var77832 temp60656_32))
(assert (= temp60656_33 #x0000000000000004))
(assert (= temp60656_34 (select ARGNAME_filter_NAMEEND_DIMSIZE temp60656_33)))
(assert (= var77833 temp60656_34))
(assert (= var77834 (ite (= var77832 var77833) #x0000000000000001 #x0000000000000000)))
(assert (= temp60656_35 #x0000000000000001))
(assert (= var77834 temp60656_35))
(assert (= temp60656_36 #x0000000000000001))
(assert (= var275510 temp60656_36))
(assert (= temp60656_37 #x0000000000000001))
(assert (= var275528
   (ite (bvslt var275510 temp60656_37) #x0000000000000001 #x0000000000000000)))
(assert (= temp60656_38 #x0000000000000000))
(assert (= var275528 temp60656_38))
(assert (= temp60656_39 #x0000000000000001))
(assert (= var406582 temp60656_39))
(assert (= temp60656_40 #x0000000000000001))
(assert (= var406600
   (ite (bvslt var406582 temp60656_40) #x0000000000000001 #x0000000000000000)))
(assert (= temp60656_41 #x0000000000000000))
(assert (= var406600 temp60656_41))
(assert (= temp60656_43 #x0000000000000000))
(assert (= temp60656_42 temp60656_43))
(assert (= temp60656_45 #x0000000000000000))
(assert (= temp60656_44 temp60656_45))
(assert (= temp60656_46 #x0000000000000001))
(assert (= var537654 temp60656_46))
(assert (= temp60656_47 #x0000000000000001))
(assert (= var537672
   (ite (bvslt var537654 temp60656_47) #x0000000000000001 #x0000000000000000)))
(assert (= temp60656_48 #x0000000000000000))
(assert (= var537672 temp60656_48))
(assert (= temp60656_50 #x0000000000000000))
(assert (= temp60656_49 temp60656_50))
(assert (= temp60656_52 #x0000000000000000))
(assert (= temp60656_51 temp60656_52))
(assert (= temp60656_54 #x00000000000000ff))
(assert (= temp60656_53 temp60656_54))
(assert (= temp60656_56 #x00000000000000ff))
(assert (= temp60656_55 temp60656_56))
(assert (= temp60656_58 #x00000000000000ff))
(assert (= temp60656_57 temp60656_58))
(assert (= temp60656_59 #x0000000000000000))
(assert (= var795723 temp60656_59))
(assert (= var795702 var795723))
(assert (= var664608 var795702))
(assert (= temp60656_60 #x0000000000000000))
(assert (= var664608 temp60656_60))
(assert (= temp60656_61 #x0000000000000000))
(assert (= var861259 temp60656_61))
(assert (= var861238 var861259))
(assert (= var664611 var861238))
(assert (= temp60656_62 #x0000000000000000))
(assert (= var664611 temp60656_62))
(assert (= temp60656_63 #x0000000000008000))
(assert (= var1057842 temp60656_63))
(assert (= temp60656_64 #x0000000000040000))
(assert (= var1123378 temp60656_64))
(assert (= temp60656_65 #x0000000000200000))
(assert (= var1188914 temp60656_65))
(model-add temp60656_1 () (_ BitVec 64) #x0000000000000005)
(model-add temp60656_2 () (_ BitVec 64) #x0000000000000001)
(model-add var77740 () (_ BitVec 64) #x0000000000000001)
(model-del k!0)
(model-add ARGNAME_filter_NAMEEND_DIM
           ()
           (_ BitVec 64)
           (ite k!0 #x0000000000000005 (bvnot #x0000000000000005)))


